
#(C) 2020 by FIZ Karlsruhe - Leibniz Institute for Information Infrastructure.  All rights reserved.
data_10381-ICSD
_database_code_ICSD 10381
_audit_creation_date 1980-01-01
_audit_update_record 1987-05-26
_chemical_name_common 'Rubidium tantalum cyclo-trigermanate'
_chemical_formula_structural 'Rb Ta Ge3 O9'
_chemical_formula_sum 'Ge3 O9 Rb1 Ta1'
_chemical_name_structure_type BaTiSi3O9
_exptl_crystal_density_diffrn 4.8
_citation_title 'Sur de nouveaux germanates et silicates de type benitoite'
loop_
_citation_id
_citation_journal_full
_citation_year
_citation_journal_volume
_citation_page_first
_citation_page_last
_citation_journal_id_ASTM
primary 'Journal of Solid State Chemistry' 1972 4 209 218 JSSCBI
loop_
_citation_author_citation_id
_citation_author_name
primary 'Choisnet, J.'
primary 'Deschanvres, A.'
primary 'Raveau, B.'
_cell_length_a 7.041(5)
_cell_length_b 7.041(5)
_cell_length_c 10.116(5)
_cell_angle_alpha 90.
_cell_angle_beta 90.
_cell_angle_gamma 120.
_cell_volume 434.32
_cell_formula_units_Z 2
_space_group_name_H-M_alt 'P -6 c 2'
_space_group_IT_number 188
loop_
_space_group_symop_id
_space_group_symop_operation_xyz
1 'x, x-y, -z'
2 '-x+y, y, -z'
3 '-y, -x, -z'
4 'x, x-y, z+1/2'
5 '-x+y, y, z+1/2'
6 '-y, -x, z+1/2'
7 '-x+y, -x, -z+1/2'
8 '-y, x-y, -z+1/2'
9 'x, y, -z+1/2'
10 '-x+y, -x, z'
11 '-y, x-y, z'
12 'x, y, z'
loop_
_atom_type_symbol
_atom_type_oxidation_number
Rb1+ 1
Ta5+ 5
Ge4+ 4
O2- -2
loop_
_atom_site_label
_atom_site_type_symbol
_atom_site_symmetry_multiplicity
_atom_site_Wyckoff_symbol
_atom_site_fract_x
_atom_site_fract_y
_atom_site_fract_z
_atom_site_B_iso_or_equiv
_atom_site_occupancy
Rb1 Rb1+ 2 e 0.6667 0.3333 0 . 1.
Ta1 Ta5+ 2 c 0.3333 0.6667 0 . 1.
Ge1 Ge4+ 6 k 0.071 0.289 0.25 . 1.
O1 O2- 6 k 0.253 0.193 0.25 . 1.
O2 O2- 12 l 0.105 0.45 0.115 . 1.
#End of TTdata_10381-ICSD