
#(C) 2020 by FIZ Karlsruhe - Leibniz Institute for Information Infrastructure.  All rights reserved.
data_171423-ICSD
_database_code_ICSD 171423
_audit_creation_date 2006-10-01
_chemical_name_common 'Potassium tetrastrontium borate'
_chemical_formula_structural 'K Sr4 (B O3)3'
_chemical_formula_sum 'B3 K1 O9 Sr4'
_chemical_name_structure_type NaCa4(BO3)3
_exptl_crystal_density_diffrn 4.13
_citation_title

;
Structure determination and relative properties of novel non-centrosymmetric
borates M M'4 (B O3)3 (M= Na, M'= Ca and M= K, M'= Ca, Sr)
;
loop_
_citation_id
_citation_journal_full
_citation_year
_citation_journal_volume
_citation_page_first
_citation_page_last
_citation_journal_id_ASTM
primary 'Inorganic Chemistry' 2006 45 3042 3047 INOCAJ
loop_
_citation_author_citation_id
_citation_author_name
primary 'Wu, L.'
primary 'Chen, X.-L.'
primary 'Xu, Y.-P.'
primary 'Sun, Y.P.'
_cell_length_a 11.03843(8)
_cell_length_b 11.98974(9)
_cell_length_c 6.88446(5)
_cell_angle_alpha 90.
_cell_angle_beta 90.
_cell_angle_gamma 90.
_cell_volume 911.14
_cell_formula_units_Z 4
_space_group_name_H-M_alt 'A m a 2'
_space_group_IT_number 40
loop_
_space_group_symop_id
_space_group_symop_operation_xyz
1 'x+1/2, -y, z'
2 '-x+1/2, y, z'
3 '-x, -y, z'
4 'x, y, z'
5 'x+1/2, -y+1/2, z+1/2'
6 '-x+1/2, y+1/2, z+1/2'
7 '-x, -y+1/2, z+1/2'
8 'x, y+1/2, z+1/2'
loop_
_atom_type_symbol
_atom_type_oxidation_number
Sr2+ 2
K1+ 1
O2- -2
B3+ 3
loop_
_atom_site_label
_atom_site_type_symbol
_atom_site_symmetry_multiplicity
_atom_site_Wyckoff_symbol
_atom_site_fract_x
_atom_site_fract_y
_atom_site_fract_z
_atom_site_U_iso_or_equiv
_atom_site_occupancy
Sr1 Sr2+ 4 b .25 .3551(2) .0623(5) .0080(5) 1
Sr2 Sr2+ 8 c -.0293(1) .2148(1) .9297(4) .0082(3) 1
Sr3 Sr2+ 4 a . . .2829 .0107(5) 1
K1 K1+ 4 b .25 .5844(5) .3305(9) .016(1) 1
O1 O2- 4 b .25 .3475(11) .4541(25) .004(4) 1
O2 O2- 4 b .25 .5713(16) .912(3) .041(3) 1
O3 O2- 8 c .1360(10) .6727(9) .6668(14) .005(3) 1
O4 O2- 8 c .0302(7) .4017(9) .1092(16) .003(2) 1
O5 O2- 8 c .8584(11) .1982(8) .2406(17) .005(3) 1
O6 O2- 4 a . .5 .410(3) .010(4) 1
B1 B3+ 4 b .25 .643(2) .751(4) .001(6) 1
B2 B3+ 4 b .25 .328(2) .650(4) .004(6) 1
B3 B3+ 4 a . .5 .210(5) .015(7) 1
#End of TTdata_171423-ICSD