
#(C) 2020 by FIZ Karlsruhe - Leibniz Institute for Information Infrastructure.  All rights reserved.
data_172399-ICSD
_database_code_ICSD 172399
_audit_creation_date 2007-04-01
_chemical_name_common 'Barium bis(borate) diborate'
_chemical_formula_structural 'Ba5 (B O3)2 (B2 O5)'
_chemical_formula_sum 'B4 Ba5 O11'
_exptl_crystal_density_diffrn 4.93
_citation_title
'Crystal structure of the novel barium borate Ba5 (B O3)2 (B2 O5)'
loop_
_citation_id
_citation_journal_full
_citation_year
_citation_journal_volume
_citation_page_first
_citation_page_last
_citation_journal_id_ASTM
primary Kristallografiya 2006 51 248 253 KRISAJ
loop_
_citation_author_citation_id
_citation_author_name
primary 'Furmanova, N.G.'
primary 'Maksimov, B.A.'
primary 'Molchanov, V.N.'
primary 'Kokh, A.E.'
primary 'Kononova, N.G.'
primary 'Fedorov, P.P.'
_cell_length_a 9.590(2)
_cell_length_b 16.659(3)
_cell_length_c 22.919(6)
_cell_angle_alpha 90
_cell_angle_beta 90
_cell_angle_gamma 90
_cell_volume 3661.54
_cell_formula_units_Z 12
_space_group_name_H-M_alt 'P 21 21 21'
_space_group_IT_number 19
loop_
_space_group_symop_id
_space_group_symop_operation_xyz
1 '-x, y+1/2, -z+1/2'
2 'x+1/2, -y+1/2, -z'
3 '-x+1/2, -y, z+1/2'
4 'x, y, z'
loop_
_atom_type_symbol
_atom_type_oxidation_number
Ba2+ 2
O2- -2
B3+ 3
loop_
_atom_site_label
_atom_site_type_symbol
_atom_site_symmetry_multiplicity
_atom_site_Wyckoff_symbol
_atom_site_fract_x
_atom_site_fract_y
_atom_site_fract_z
_atom_site_U_iso_or_equiv
_atom_site_occupancy
Ba1 Ba2+ 4 a 0.22748(11) 0.19288(6) 0.24895(5) 0.0141(3) 1
Ba2 Ba2+ 4 a 0.39666(10) 0.34485(6) 0.53797(4) 0.0126(2) 1
Ba3 Ba2+ 4 a 0.30827(10) 0.14946(6) 0.41545(4) 0.0108(2) 1
Ba4 Ba2+ 4 a 0.58999(10) 0.14728(6) 0.63039(5) 0.0134(3) 1
Ba5 Ba2+ 4 a 0.71348(11) 0.34461(7) 0.41562(5) 0.0158(3) 1
Ba6 Ba2+ 4 a 0.56169(10) 0.51239(6) 0.29829(5) 0.0123(2) 1
Ba7 Ba2+ 4 a 0.53888(11) 0.00439(5) 0.49852(4) 0.0118(2) 1
Ba8 Ba2+ 4 a 0.64276(10) 0.10199(6) 0.33294(5) 0.0121(2) 1
Ba9 Ba2+ 4 a 0.74649(9) 0.29760(6) 0.25027(5) 0.0112(2) 1
Ba10 Ba2+ 4 a 0.20877(10) 0.14855(6) 0.08295(4) 0.0117(2) 1
Ba11 Ba2+ 4 a 0.07630(10) 0.65190(6) 0.62998(5) 0.0127(2) 1
Ba12 Ba2+ 4 a 0.11807(10) 0.33921(6) 0.96637(5) 0.0133(3) 1
Ba13 Ba2+ 4 a 0.14750(10) 0.60480(6) 0.33358(5) 0.0116(2) 1
Ba14 Ba2+ 4 a 0.20697(11) 0.84892(8) 0.41809(5) 0.0198(3) 1
Ba15 Ba2+ 4 a 0.05071(11) -0.00074(6) 0.29406(5) 0.0139(3) 1
O1 O2- 4 a 0.1083(13) 0.3471(8) 0.5580(6) 0.018(3) 1
O2 O2- 4 a 0.1473(12) 0.2655(7) 0.8575(5) 0.010(2) 1
O3 O2- 4 a 0.0968(17) 0.6574(10) 0.4405(7) 0.032(4) 1
O4 O2- 4 a 0.1415(14) 0.7511(8) 0.5148(6) 0.018(3) 1
O5 O2- 4 a 0.1071(13) 0.3535(8) 0.7781(6) 0.017(3) 1
O6 O2- 4 a 0.0827(14) 0.8273(8) 0.6584(6) 0.019(3) 1
O7 O2- 4 a 0.0405(13) 0.8280(8) 0.0229(6) 0.017(2) 1
O8 O2- 4 a 0.2346(12) 0.5795(7) 0.9439(5) 0.012(2) 1
O9 O2- 4 a 0.0552(14) 0.0033(8) 0.8905(6) 0.018(3) 1
O10 O2- 4 a 0.1543(14) 0.4586(8) 0.2799(6) 0.019(3) 1
O11 O2- 4 a 0.1649(13) 0.9221(8) 0.1837(6) 0.017(3) 1
O12 O2- 4 a 0.1566(13) 0.7302(7) 0.1461(5) 0.014(2) 1
O13 O2- 4 a 0.2444(13) 0.4281(8) 0.0565(6) 0.018(3) 1
O14 O2- 4 a 0.1024(14) 0.9251(8) 0.5125(6) 0.020(3) 1
O15 O2- 4 a 0.0736(14) 0.6501(8) 0.2262(6) 0.021(3) 1
O16 O2- 4 a 0.0561(14) 0.1647(8) 0.9812(6) 0.020(3) 1
O17 O2- 4 a 0.1572(13) 0.2418(7) 0.4865(5) 0.014(2) 1
O18 O2- 4 a 0.0790(14) 0.1853(8) 0.3520(6) 0.021(3) 1
O19 O2- 4 a -0.0051(13) 0.5517(8) 0.9532(6) 0.017(3) 1
O20 O2- 4 a 0.1341(15) 0.4656(8) 0.8921(6) 0.022(3) 1
O21 O2- 4 a 0.1495(12) 0.0638(7) 0.1869(5) 0.012(2) 1
O22 O2- 4 a 0.1668(13) 0.9383(7) 0.8072(6) 0.015(2) 1
O23 O2- 4 a 0.0437(15) 0.1417(8) 0.6791(6) 0.024(3) 1
O24 O2- 4 a 0.1918(14) 0.0791(8) 0.8222(6) 0.018(3) 1
O25 O2- 4 a 0.0624(18) -0.0085(10) 0.1055(7) 0.033(4) 1
O26 O2- 4 a 0.1358(14) 0.5463(8) 0.7220(6) 0.017(3) 1
O27 O2- 4 a 0.1325(14) 0.5316(8) 0.1115(6) 0.017(3) 1
O28 O2- 4 a 0.1981(14) 0.6546(8) 0.7863(6) 0.024(3) 1
O29 O2- 4 a 0.0513(14) 0.3977(8) 0.1187(6) 0.019(3) 1
O30 O2- 4 a 0.082(2) 0.7625(11) 0.8364(8) 0.044(4) 1
O31 O2- 4 a 0.1825(15) 0.2825(9) 0.1494(6) 0.023(3) 1
O32 O2- 4 a 0.2115(19) 0.0508(11) 0.4935(8) 0.038(4) 1
O33 O2- 4 a 0.0467(18) 0.8070(11) 0.3161(8) 0.039(4) 1
B1 B3+ 4 a 0.1259(18) -0.0069(10) 0.1586(8) 0.009(3) 1
B2 B3+ 4 a 0.060(2) 0.6911(11) 0.4922(8) 0.013(3) 1
B3 B3+ 4 a 0.0753(19) 0.3027(11) 0.5064(8) 0.012(3) 1
B4 B3+ 4 a 0.1354(19) 0.0091(11) 0.8394(8) 0.010(3) 1
B5 B3+ 4 a 0.112(2) 0.0030(13) 0.5125(10) 0.021(4) 1
B6 B3+ 4 a 0.229(2) 0.5771(14) 0.7582(10) 0.019(4) 1
B7 B3+ 4 a 0.0671(17) 0.3245(10) 0.1517(7) 0.006(3) 1
B8 B3+ 4 a 0.072(2) 0.6859(13) 0.8168(10) 0.020(4) 1
B9 B3+ 4 a 0.057(2) 0.3147(12) 0.8252(9) 0.017(4) 1
B10 B3+ 4 a 0.0500(19) 0.6854(10) 0.1729(8) 0.010(3) 1
B11 B3+ 4 a 0.130(2) 0.5311(13) 0.9280(10) 0.020(4) 1
B12 B3+ 4 a 0.148(2) 0.4546(12) 0.0940(9) 0.016(4) 1
loop_
_atom_site_aniso_label
_atom_site_aniso_type_symbol
_atom_site_aniso_U_11
_atom_site_aniso_U_22
_atom_site_aniso_U_33
_atom_site_aniso_U_12
_atom_site_aniso_U_13
_atom_site_aniso_U_23
Ba1 Ba2+ 0.0214(5) 0.0107(4) 0.0101(4) -0.0021(4) 0.0020(4) -0.0010(4)
Ba2 Ba2+ 0.0152(4) 0.0119(4) 0.0106(4) 0.0020(4) 0.0019(3) 0.0013(4)
Ba3 Ba2+ 0.0115(4) 0.0115(4) 0.0093(4) 0.0005(3) -0.0003(3) -0.0005(3)
Ba4 Ba2+ 0.0159(4) 0.0122(4) 0.0120(5) 0.0004(4) -0.0020(4) -0.0007(4)
Ba5 Ba2+ 0.0155(4) 0.0216(5) 0.0102(5) 0.0073(4) 0.0006(4) 0.0015(4)
Ba6 Ba2+ 0.0126(4) 0.0110(4) 0.0133(5) -0.0013(3) -0.0006(4) 0.0005(3)
Ba7 Ba2+ 0.0156(4) 0.0106(4) 0.0090(4) -0.0008(3) 0.0003(4) -0.0008(3)
Ba8 Ba2+ 0.0134(4) 0.0134(4) 0.0094(4) -0.0021(3) -0.0006(4) 0.0001(3)
Ba9 Ba2+ 0.0134(4) 0.0104(4) 0.0097(4) -0.0003(3) -0.0008(4) -0.0003(4)
Ba10 Ba2+ 0.0123(4) 0.0137(4) 0.0090(4) -0.0011(4) 0.0000(3) 0.0018(4)
Ba11 Ba2+ 0.0132(4) 0.0115(4) 0.0135(5) 0.0007(4) -0.0032(4) -0.0012(4)
Ba12 Ba2+ 0.0136(4) 0.0118(4) 0.0145(5) -0.0003(3) 0.0018(4) -0.0005(4)
Ba13 Ba2+ 0.0107(4) 0.0146(4) 0.0096(4) -0.0021(3) 0.0002(3) -0.0002(3)
Ba14 Ba2+ 0.0167(5) 0.0325(6) 0.0101(5) 0.0111(5) 0.0004(4) 0.0020(4)
Ba15 Ba2+ 0.0125(4) 0.0170(5) 0.0121(5) 0.0005(4) 0.0003(4) 0.0038(4)
#End of TTdata_172399-ICSD