
#(C) 2020 by FIZ Karlsruhe - Leibniz Institute for Information Infrastructure.  All rights reserved.
data_185041-ICSD
_database_code_ICSD 185041
_audit_creation_date 2013-02-01
_audit_update_record 2019-02-01
_chemical_name_common 'Dipotassium dialuminum bis(borate) oxide'
_chemical_formula_structural 'K2 Al2 (B O3)2 O'
_chemical_formula_sum 'Al2 B2 K2 O7'
_chemical_name_structure_type K2Ga2O(BO3)2
_exptl_crystal_density_diffrn 2.47
_citation_title

;
Growth, characterization and the fourth harmonic generation at 266nm of K2 Al2
B2 O7 crystals without UV absorptions and Na impurity
;
_publ_section_comment 'Cell and Type only determined'
loop_
_citation_id
_citation_journal_full
_citation_year
_citation_journal_volume
_citation_page_first
_citation_page_last
_citation_journal_id_ASTM
primary 'Journal of Crystal Growth' 2012 348 1 4 JCRGAE
loop_
_citation_author_citation_id
_citation_author_name
primary 'Wang Yonggang'
primary 'Wang Lirong'
primary 'Gao Xin'
primary 'Wang Guiling'
primary 'Li, R.K.'
primary 'Chen, C.T.'
_cell_length_a 8.5552
_cell_length_b 8.5552
_cell_length_c 8.4501
_cell_angle_alpha 90.
_cell_angle_beta 90.
_cell_angle_gamma 120.
_cell_volume 535.62
_cell_formula_units_Z 3
_space_group_name_H-M_alt 'P 3 2 1'
_space_group_IT_number 150
loop_
_space_group_symop_id
_space_group_symop_operation_xyz
1 'x-y, -y, -z'
2 '-x, -x+y, -z'
3 'y, x, -z'
4 '-x+y, -x, z'
5 '-y, x-y, z'
6 'x, y, z'
loop_
_atom_type_symbol
_atom_type_oxidation_number
K1+ 1
Al3+ 3
O2- -2
B3+ 3
loop_
_atom_site_label
_atom_site_type_symbol
_atom_site_symmetry_multiplicity
_atom_site_Wyckoff_symbol
_atom_site_fract_x
_atom_site_fract_y
_atom_site_fract_z
_atom_site_B_iso_or_equiv
_atom_site_occupancy
K1 K1+ 3 e 0.309 0 0 . 1.
K2 K1+ 3 f 0.358 0 0.5 . 1.
Al1 Al3+ 2 c 0 0 0.299 . 1.
Al2 Al3+ 2 d 0.3333 0.6667 0.183 . 1.
Al3 Al3+ 2 d 0.6667 0.3333 0.222 . 1.
O1 O2- 6 g 0.157 0.214 0.226 . 1.
O2 O2- 6 g 0.398 0.516 0.252 . 1.
O3 O2- 6 g 0.452 0.2736 0.293 . 1.
O4 O2- 1 b 0 0 0.5 . 1.
O5 O2- 2 d 0.6667 0.3333 0.02 . 1.
B1 B3+ 6 g 0.335 0.334 0.257 . 1.
#End of TTdata_185041-ICSD