
#(C) 2020 by FIZ Karlsruhe - Leibniz Institute for Information Infrastructure.  All rights reserved.
data_200063-ICSD
_database_code_ICSD 200063
_audit_creation_date 1980-01-01
_audit_update_record 2003-10-01
_chemical_name_common 'Pentalead germanate digermanate - HT'
_chemical_formula_structural 'Pb5 (Ge O4) (Ge2 O7)'
_chemical_formula_sum 'Ge3 O11 Pb5'
_chemical_name_structure_type Pb5GeO4Ge2O7
_exptl_crystal_density_diffrn 7.3
_diffrn_ambient_temperature 473.
_citation_title

;
Neutron diffraction study of the structure of paraelectric phase of Pb5 Ge3
O11
;
loop_
_citation_id
_citation_journal_full
_citation_year
_citation_journal_volume
_citation_page_first
_citation_page_last
_citation_journal_id_ASTM
primary 'Journal of the Physical Society of Japan' 1977 43 961 967 JUPSAU
loop_
_citation_author_citation_id
_citation_author_name
primary 'Iwata, Y.'
_cell_length_a 10.26
_cell_length_b 10.26
_cell_length_c 10.696
_cell_angle_alpha 90.
_cell_angle_beta 90.
_cell_angle_gamma 120.
_cell_volume 975.09
_cell_formula_units_Z 3
_space_group_name_H-M_alt 'P -6'
_space_group_IT_number 174
loop_
_space_group_symop_id
_space_group_symop_operation_xyz
1 '-x+y, -x, -z'
2 '-y, x-y, -z'
3 'x, y, -z'
4 '-x+y, -x, z'
5 '-y, x-y, z'
6 'x, y, z'
loop_
_atom_type_symbol
_atom_type_oxidation_number
Pb2+ 2
Ge4+ 4
O2- -2
loop_
_atom_site_label
_atom_site_type_symbol
_atom_site_symmetry_multiplicity
_atom_site_Wyckoff_symbol
_atom_site_fract_x
_atom_site_fract_y
_atom_site_fract_z
_atom_site_B_iso_or_equiv
_atom_site_occupancy
Pb1 Pb2+ 3 k 0.2569(5) 0.0057(5) 0.5 . 1.
Pb2 Pb2+ 6 l 0.0010(3) 0.7370(3) 0.1842(2) . 1.
Pb3 Pb2+ 1 e 0.6667 0.3333 0 . 1.
Pb4 Pb2+ 2 i 0.6667 0.3333 0.3372(5) . 1.
Pb5 Pb2+ 1 c 0.3333 0.6667 0 . 1.
Pb6 Pb2+ 2 h 0.3333 0.6667 0.3243(5) . 1.
Ge1 Ge4+ 6 l 0.3935(3) 0.0148(3) 0.1514(3) . 1.
Ge2 Ge4+ 3 k 0.0038(4) 0.6126(4) 0.5 . 1.
O1 O2- 6 l 0.0817(7) 0.7360(7) 0.6270(7) . 1.
O2 O2- 3 k 0.4828(7) 0.2889(7) 0.5 . 1.
O3 O2- 3 k 0.0737(11) 0.4896(11) 0.5 . 1.
O4 O2- 6 l 0.5158(7) 0.4097(6) 0.1599(6) . 1.
O5 O2- 6 l 0.1783(6) 0.4853(6) 0.1667(5) . 1.
O6 O2- 3 j 0.3586(8) 0.0683(8) 0 . 1.
O7 O2- 6 l 0.3242(8) 0.0913(6) 0.2623(5) . 1.
#End of TTdata_200063-ICSD