
#(C) 2020 by FIZ Karlsruhe - Leibniz Institute for Information Infrastructure.  All rights reserved.
data_254191-ICSD
_database_code_ICSD 254191
_audit_creation_date 2018-02-01
_chemical_name_common 'Manganese(II) germanium tellurate(VI)'
_chemical_formula_structural 'Mn Ge Te O6'
_chemical_formula_sum 'Ge1 Mn1 O6 Te1'
_exptl_crystal_density_diffrn 5.75
_diffrn_ambient_temperature 296.
_citation_title

;
A(II)GeTeO6 (A = Mn, Cd, Pb): Non-centrosymmetric layered tellurates with
PbSb2O6-related structure
;
loop_
_citation_id
_citation_journal_full
_citation_year
_citation_journal_volume
_citation_page_first
_citation_page_last
_citation_journal_id_ASTM
primary 'Inorganic Chemistry' 2017 56 9019 9024 INOCAJ
loop_
_citation_author_citation_id
_citation_author_name
primary 'Kim, Sun Woo'
primary 'Deng, Zheng'
primary 'Yu, Shuang'
primary 'Padmanabhan, Haricharan'
primary 'Zhang, Weiguo'
primary 'Gopalan, Venkatraman'
primary 'Jin, Changqing'
primary 'Greenblatt, Martha'
_cell_length_a 4.99889(4)
_cell_length_b 4.99889(4)
_cell_length_c 4.68369(7)
_cell_angle_alpha 90.
_cell_angle_beta 90.
_cell_angle_gamma 120.
_cell_volume 101.36
_cell_formula_units_Z 1
_space_group_name_H-M_alt 'P 3 1 2'
_space_group_IT_number 149
loop_
_space_group_symop_id
_space_group_symop_operation_xyz
1 'x, x-y, -z'
2 '-x+y, y, -z'
3 '-y, -x, -z'
4 '-x+y, -x, z'
5 '-y, x-y, z'
6 'x, y, z'
loop_
_atom_type_symbol
_atom_type_oxidation_number
Mn2+ 2
Ge4+ 4
Te6+ 6
O2- -2
loop_
_atom_site_label
_atom_site_type_symbol
_atom_site_symmetry_multiplicity
_atom_site_Wyckoff_symbol
_atom_site_fract_x
_atom_site_fract_y
_atom_site_fract_z
_atom_site_U_iso_or_equiv
_atom_site_occupancy
Mn1 Mn2+ 1 a 0. 0. 0. 0.00113 1.
Ge1 Ge4+ 1 f 0.6667 0.3333 0.5 0.00169 1.
Te1 Te6+ 1 d 0.3333 0.6667 0.5 0.00211 1.
O1 O2- 6 l 0.36415 0.01409 0.26683 0.00141 1.
#End of TTdata_254191-ICSD