
#(C) 2020 by FIZ Karlsruhe - Leibniz Institute for Information Infrastructure.  All rights reserved.
data_65666-ICSD
_database_code_ICSD 65666
_audit_creation_date 1990-06-08
_chemical_name_common 'Octasodium tecto-hexaalumohexagermanate iodide'
_chemical_formula_structural 'Na8 (Al6 Ge6 O24) I2'
_chemical_formula_sum 'Al6 Ge6 I2 Na8 O24'
_chemical_name_structure_type Sodalite-frame#Na8Al6Si6O24Cl2
_exptl_crystal_density_diffrn 3.05
_citation_title

;
Structures of sodium alumino-germanate sodalites (Na8 (Al6 Ge6 O24) A2, A= Cl,
Br, I)
;
loop_
_citation_id
_citation_journal_full
_citation_year
_citation_journal_volume
_citation_page_first
_citation_page_last
_citation_journal_id_ASTM
primary 'Acta Crystallographica, Section C: Crystal Structure Communications'
1989 45 843 847 ACSCEE
loop_
_citation_author_citation_id
_citation_author_name
primary 'Fleet, M.E.'
_cell_length_a 9.1755(10)
_cell_length_b 9.1755(10)
_cell_length_c 9.1755(10)
_cell_angle_alpha 90.
_cell_angle_beta 90.
_cell_angle_gamma 90.
_cell_volume 772.48
_cell_formula_units_Z 1
_space_group_name_H-M_alt 'P -4 3 n'
_space_group_IT_number 218
loop_
_space_group_symop_id
_space_group_symop_operation_xyz
1 '-z+1/2, y+1/2, -x+1/2'
2 '-y+1/2, x+1/2, -z+1/2'
3 '-x+1/2, z+1/2, -y+1/2'
4 'z+1/2, -y+1/2, -x+1/2'
5 'y+1/2, -x+1/2, -z+1/2'
6 'x+1/2, -z+1/2, -y+1/2'
7 '-z+1/2, -y+1/2, x+1/2'
8 '-y+1/2, -x+1/2, z+1/2'
9 '-x+1/2, -z+1/2, y+1/2'
10 'z+1/2, y+1/2, x+1/2'
11 'y+1/2, x+1/2, z+1/2'
12 'x+1/2, z+1/2, y+1/2'
13 '-z, -x, y'
14 '-y, -z, x'
15 '-x, -y, z'
16 'z, -x, -y'
17 'y, -z, -x'
18 'x, -y, -z'
19 '-z, x, -y'
20 '-y, z, -x'
21 '-x, y, -z'
22 'z, x, y'
23 'y, z, x'
24 'x, y, z'
loop_
_atom_type_symbol
_atom_type_oxidation_number
Na1+ 1
I1- -1
Al3+ 3
Ge4+ 4
O2- -2
loop_
_atom_site_label
_atom_site_type_symbol
_atom_site_symmetry_multiplicity
_atom_site_Wyckoff_symbol
_atom_site_fract_x
_atom_site_fract_y
_atom_site_fract_z
_atom_site_B_iso_or_equiv
_atom_site_occupancy
Na1 Na1+ 8 e 0.1933(1) 0.1933(1) 0.1933(1) . 1.
I1 I1- 2 a 0 0 0 . 1.
Al1 Al3+ 6 d 0.25 0 0.5 . 1.
Ge1 Ge4+ 6 c 0.25 0.5 0 . 1.
O1 O2- 24 i 0.1460(2) 0.1470(2) 0.4386(2) . 1.
loop_
_atom_site_aniso_label
_atom_site_aniso_type_symbol
_atom_site_aniso_B_11
_atom_site_aniso_B_22
_atom_site_aniso_B_33
_atom_site_aniso_B_12
_atom_site_aniso_B_13
_atom_site_aniso_B_23
Na1 Na1+ 1.564(34) 1.564(34) 1.564(34) 0.286(44) 0.286(44) 0.286(44)
I1 I1- 2.693(16) 2.693(16) 2.693(16) 0 0 0
Al1 Al3+ 0.553(15) 0.553(15) 0.553(15) 0 0 0
Ge1 Ge4+ 0.471(7) 0.471(7) 0.471(7) 0 0 0
O1 O2- 0.964(77) 0.983(77) 0.858(56) 0.236(55) 0.136(68) 0.086(69)
#End of TTdata_65666-ICSD