
#(C) 2020 by FIZ Karlsruhe - Leibniz Institute for Information Infrastructure.  All rights reserved.
data_87991-ICSD
_database_code_ICSD 87991
_audit_creation_date 2001-07-16
_chemical_name_common 'Octalithium hexakis(alumogermanate) dibromide'
_chemical_formula_structural 'Li8 (Al Ge O4)6 Br2'
_chemical_formula_sum 'Al6 Br2 Ge6 Li8 O24'
_chemical_name_structure_type Sodalite-frame#Na8Al6Si6O24Cl2
_exptl_crystal_density_diffrn 3.04
_diffrn_ambient_temperature 298.
_citation_title

;
A powder neutron diffraction study of lithium-substituted gallosilicate and
aluminogermanate halide sodalites
;
loop_
_citation_id
_citation_journal_full
_citation_year
_citation_journal_volume
_citation_page_first
_citation_page_last
_citation_journal_id_ASTM
primary 'Inorganic Chemistry' 1999 38 2442 2450 INOCAJ
loop_
_citation_author_citation_id
_citation_author_name
primary 'Johnson, G.M.'
primary 'Weller, M.T.'
_cell_length_a 8.6786(5)
_cell_length_b 8.6786(5)
_cell_length_c 8.6786(5)
_cell_angle_alpha 90.
_cell_angle_beta 90.
_cell_angle_gamma 90.
_cell_volume 653.66
_cell_formula_units_Z 1
_space_group_name_H-M_alt 'P -4 3 n'
_space_group_IT_number 218
loop_
_space_group_symop_id
_space_group_symop_operation_xyz
1 '-z+1/2, y+1/2, -x+1/2'
2 '-y+1/2, x+1/2, -z+1/2'
3 '-x+1/2, z+1/2, -y+1/2'
4 'z+1/2, -y+1/2, -x+1/2'
5 'y+1/2, -x+1/2, -z+1/2'
6 'x+1/2, -z+1/2, -y+1/2'
7 '-z+1/2, -y+1/2, x+1/2'
8 '-y+1/2, -x+1/2, z+1/2'
9 '-x+1/2, -z+1/2, y+1/2'
10 'z+1/2, y+1/2, x+1/2'
11 'y+1/2, x+1/2, z+1/2'
12 'x+1/2, z+1/2, y+1/2'
13 '-z, -x, y'
14 '-y, -z, x'
15 '-x, -y, z'
16 'z, -x, -y'
17 'y, -z, -x'
18 'x, -y, -z'
19 '-z, x, -y'
20 '-y, z, -x'
21 '-x, y, -z'
22 'z, x, y'
23 'y, z, x'
24 'x, y, z'
loop_
_atom_type_symbol
_atom_type_oxidation_number
Al3+ 3
Ge4+ 4
Br1- -1
O2- -2
Li1+ 1
loop_
_atom_site_label
_atom_site_type_symbol
_atom_site_symmetry_multiplicity
_atom_site_Wyckoff_symbol
_atom_site_fract_x
_atom_site_fract_y
_atom_site_fract_z
_atom_site_B_iso_or_equiv
_atom_site_occupancy
Al1 Al3+ 6 c 0.25 0.5 0 0.44(11) 1.
Ge1 Ge4+ 6 d 0.25 0 0.5 0.44(4) 1.
Br1 Br1- 2 a 0 0 0 2.59(5) 1.
O1 O2- 24 i 0.1377(2) 0.1399(2) 0.4054(1) 0.75(9) 1.
Li1 Li1+ 8 e 0.1828(3) 0.1828(3) 0.1828(3) 2.21(8) 1.
#End of TTdata_87991-ICSD